222
0 196 162 201 163 72 170 219 30 110 
141 104 114 111 126 14 56 28 27 87 
9 107 54 161 82 53 119 188 216 178 
29 192 151 38 84 57 217 48 193 186 
164 68 86 42 91 80 150 95 153 85 
19 75 165 113 125 179 88 212 17 24 
93 3 102 187 13 35 8 94 12 43 
174 63 40 25 208 176 211 143 115 39 
210 31 62 121 124 220 79 221 198 159 
149 144 23 4 191 15 41 46 117 98 
195 202 203 45 112 209 147 58 83 127 
148 199 154 18 215 185 134 59 189 132 
213 145 71 177 47 120 108 51 155 181 
169 173 1 78 100 11 103 156 133 182 
64 168 214 97 5 60 129 194 131 218 
157 66 55 50 183 22 6 184 37 52 
33 69 74 89 34 158 116 67 166 92 
175 204 128 65 101 32 123 16 99 90 
142 160 136 81 77 200 167 106 138 180 
172 26 105 10 137 73 140 44 2 49 
171 146 205 118 197 20 61 36 190 135 
122 207 130 109 152 206 70 96 21 7 
76 139 
